; QueryHash 10997740089846532036
(set-logic QF_AUFBV )
(declare-fun arg02 () (Array (_ BitVec 32) (_ BitVec 8) ) )
(assert (=  (_ bv92 8) (select  arg02 (_ bv1 32) ) ) )
(check-sat)
(exit)

; Assignments
; { "arg02": [0, 0, 0, 0, 0, 0, 0, 0, 0, 1, 0] }
; { "arg02": [0, 0, 0, 0, 0, 0, 0, 0, 1, 0, 0] }
; { "arg02": [0, 0, 0, 0, 0, 0, 0, 1, 0, 0, 0] }
; { "arg02": [0, 0, 0, 0, 0, 0, 1, 0, 0, 0, 0] }
; { "arg02": [0, 0, 0, 0, 0, 1, 0, 0, 0, 0, 0] }
; { "arg02": [0, 0, 0, 0, 1, 0, 0, 0, 0, 0, 0] }
; { "arg02": [0, 0, 0, 0, 48, 0, 0, 0, 0, 0, 0] }
; { "arg02": [0, 0, 0, 1, 0, 0, 0, 0, 0, 0, 0] }
; { "arg02": [0, 0, 0, 100, 0, 0, 0, 0, 0, 0, 0] }
; { "arg02": [0, 0, 0, 101, 0, 0, 0, 0, 0, 0, 0] }
; { "arg02": [0, 0, 0, 102, 0, 0, 0, 0, 0, 0, 0] }
; { "arg02": [0, 0, 0, 48, 0, 0, 0, 0, 0, 0, 0] }
; { "arg02": [0, 0, 0, 53, 0, 0, 0, 0, 0, 0, 0] }
; { "arg02": [0, 0, 0, 65, 0, 0, 0, 0, 0, 0, 0] }
; { "arg02": [0, 0, 0, 66, 0, 0, 0, 0, 0, 0, 0] }
; { "arg02": [0, 0, 0, 67, 0, 0, 0, 0, 0, 0, 0] }
; { "arg02": [0, 0, 0, 68, 0, 0, 0, 0, 0, 0, 0] }
; { "arg02": [0, 0, 0, 69, 0, 0, 0, 0, 0, 0, 0] }
; { "arg02": [0, 0, 0, 70, 0, 0, 0, 0, 0, 0, 0] }
; { "arg02": [0, 0, 0, 97, 0, 0, 0, 0, 0, 0, 0] }
; { "arg02": [0, 0, 0, 98, 0, 0, 0, 0, 0, 0, 0] }
; { "arg02": [0, 0, 0, 99, 0, 0, 0, 0, 0, 0, 0] }
; { "arg02": [0, 0, 1, 0, 0, 0, 0, 0, 0, 0, 0] }
; { "arg02": [0, 0, 100, 0, 0, 0, 0, 0, 0, 0, 0] }
; { "arg02": [0, 0, 101, 0, 0, 0, 0, 0, 0, 0, 0] }
; { "arg02": [0, 0, 102, 0, 0, 0, 0, 0, 0, 0, 0] }
; { "arg02": [0, 0, 48, 0, 0, 0, 0, 0, 0, 0, 0] }
; { "arg02": [0, 0, 53, 0, 0, 0, 0, 0, 0, 0, 0] }
; { "arg02": [0, 0, 65, 0, 0, 0, 0, 0, 0, 0, 0] }
; { "arg02": [0, 0, 66, 0, 0, 0, 0, 0, 0, 0, 0] }
; { "arg02": [0, 0, 67, 0, 0, 0, 0, 0, 0, 0, 0] }
; { "arg02": [0, 0, 68, 0, 0, 0, 0, 0, 0, 0, 0] }
; { "arg02": [0, 0, 69, 0, 0, 0, 0, 0, 0, 0, 0] }
; { "arg02": [0, 0, 70, 0, 0, 0, 0, 0, 0, 0, 0] }
; { "arg02": [0, 0, 97, 0, 0, 0, 0, 0, 0, 0, 0] }
; { "arg02": [0, 0, 98, 0, 0, 0, 0, 0, 0, 0, 0] }
; { "arg02": [0, 0, 99, 0, 0, 0, 0, 0, 0, 0, 0] }
; { "arg02": [0, 1, 0, 0, 0, 0, 0, 0, 0, 0, 0] }
; { "arg02": [0, 2, 0, 0, 0, 0, 0, 0, 0, 0, 0] }
; { "arg02": [0, 48, 0, 0, 0, 0, 0, 0, 0, 0, 0] }
; { "arg02": [0, 49, 0, 0, 0, 0, 0, 0, 0, 0, 0] }
; { "arg02": [0, 50, 0, 0, 0, 0, 0, 0, 0, 0, 0] }
; { "arg02": [0, 51, 0, 0, 0, 0, 0, 0, 0, 0, 0] }
; { "arg02": [0, 52, 0, 0, 0, 0, 0, 0, 0, 0, 0] }
; { "arg02": [0, 53, 0, 0, 0, 0, 0, 0, 0, 0, 0] }
; { "arg02": [0, 54, 0, 0, 0, 0, 0, 0, 0, 0, 0] }
; { "arg02": [0, 55, 0, 0, 0, 0, 0, 0, 0, 0, 0] }
; { "arg02": [0, 69, 0, 0, 0, 0, 0, 0, 0, 0, 0] }
; { "arg02": [0, 92, 0, 0, 0, 0, 0, 0, 0, 0, 0] }
; { "arg03": [0, 0, 1, 0, 0, 0, 0, 0, 0, 0, 0] }
; { "arg03": [0, 1, 0, 0, 0, 0, 0, 0, 0, 0, 0] }
; { "arg03": [1, 0, 0, 0, 0, 0, 0, 0, 0, 0, 0] }
; { "model_version": [1, 0, 0, 0] }
